param set_len = 24;
param target := 212524765;
param values := [1] 7932162 [2] 22202354 [3] 23781082 [4] 3147751 [5] 13252016 [6] 29221174 [7] 30660855 [8] 27505751 [9] 18876827 [10] 18622844 [11] 29957846 [12] 3451172 [13] 9876265 [14] 13625467 [15] 17692369 [16] 33387546 [17] 17569415 [18] 32502155 [19] 24681736 [20] 6325204 [21] 4724823 [22] 17122869 [23] 1846393 [24] 9959068 ;
